<instance format="XCSP3" type="CSP">
  <variables>
    <var id="x0"> 3 12 </var>
    <var id="x1"> 10 11 </var>
    <var id="x2"> 9 11 12 </var>
    <var id="x3"> 2 3 9 </var>
    <var id="x4"> 2 9 12 </var>
    <var id="x5"> 2 3 5 12 </var>
    <var id="x6"> 2 3 12 </var>
    <var id="x7"> 6 7 10 </var>
    <var id="x8"> 1 10 14 </var>
    <var id="x9"> 2 5 10 14 </var>
    <var id="x10"> 1 6 7 10 </var>
    <var id="x11"> 1 14 </var>
    <var id="x12"> 2 7 </var>
    <var id="x13"> 2 6 7 </var>
    <var id="x14"> 4 8 13 </var>
    <var id="x15"> 1 4 9 13 </var>
    <var id="x16"> 1 7 8 13 </var>
    <var id="x17"> 1 8 9 13 </var>
    <var id="x18"> 0 4 7..9 </var>
    <var id="x19"> 0 1 4 9 13 </var>
    <var id="x20"> 7 8 13 </var>
    <var id="x21"> 0 3 8 10 </var>
    <var id="x22"> 0 3 8 </var>
    <var id="x23"> 2 3 8 10 11 13 </var>
    <var id="x24"> 0 8 10 11 </var>
    <var id="x25"> 0 2 8 10 13 </var>
    <var id="x26"> 2 10 11 </var>
    <var id="x27"> 3 10 11 </var>
    <var id="x28"> 6 8 10 12 </var>
    <var id="x29"> 2 6 9 11 </var>
    <var id="x30"> 2 8 10 </var>
    <var id="x31"> 8 9 11 12 </var>
    <var id="x32"> 2 6 10 11 </var>
    <var id="x33"> 6 10 11 </var>
    <var id="x34"> 2 6 8 12 </var>
    <var id="x35"> 2..4 8 10 13 </var>
    <var id="x36"> 2 4 13 </var>
    <var id="x37"> 8 12 13 </var>
    <var id="x38"> 2 7 10 </var>
    <var id="x39"> 2 3 8 13 </var>
    <var id="x40"> 2 4 7 8 12 </var>
    <var id="x41"> 2 3 8 12 </var>
    <var id="x42"> 2 3 7 8 12 13 </var>
    <var id="x43"> 3 4 8 </var>
    <var id="x44"> 0 8 </var>
    <var id="x45"> 1 7 </var>
    <var id="x46"> 0 1 3 8 </var>
    <var id="x47"> 0 4 7 8 12 </var>
    <var id="x48"> 3 4 7 </var>
    <var id="x49"> 0 1 3 8 12 </var>
    <var id="x50"> 0 3 6 7 </var>
    <var id="x51"> 0 1 11 </var>
    <var id="x52"> 0 13 </var>
    <var id="x53"> 1 6 7 11 13 </var>
    <var id="x54"> 1 6 7 11 </var>
    <var id="x55"> 0 1 3 13 </var>
    <var id="x56"> 0 1 11 13 </var>
    <var id="x57"> 11 13 </var>
    <var id="x58"> 5 13 14 </var>
    <var id="x59"> 1 9 13 </var>
    <var id="x60"> 1 9 11 13 </var>
    <var id="x61"> 5 6 11 </var>
    <var id="x62"> 1 5 6 </var>
    <var id="x63"> 6 13 </var>
    <var id="x64"> 0 3 6 8 </var>
    <var id="x65"> 6 11 13 </var>
    <var id="x66"> 0 8 11 14 </var>
    <var id="x67"> 6 8 11 13 </var>
    <var id="x68"> 0 8 </var>
    <var id="x69"> 0 11 13 </var>
    <var id="x70"> 0 3 6 8 </var>
    <var id="x71"> 0 7 8 </var>
    <var id="x72"> 0 1 7 8 </var>
    <var id="x73"> 1 2 4 11 </var>
    <var id="x74"> 0 1 8 11 </var>
    <var id="x75"> 1 8 11 </var>
    <var id="x76"> 4 7 11 </var>
    <var id="x77"> 2 7 8 </var>
    <var id="x78"> 1 8 12 </var>
    <var id="x79"> 2 8 10 11 </var>
    <var id="x80"> 1 8 10..12 14 </var>
    <var id="x81"> 1 2 10 11 14 </var>
    <var id="x82"> 1 2 8 </var>
    <var id="x83"> 1 2 11 </var>
    <var id="x84"> 2 8 12 </var>
    <var id="x85"> 2 3 8 </var>
    <var id="x86"> 1 2 6 9 </var>
    <var id="x87"> 1 8 12 </var>
    <var id="x88"> 1 6 8 </var>
    <var id="x89"> 1 2 9 </var>
    <var id="x90"> 3 6 </var>
    <var id="x91"> 1..3 6 8 12 </var>
    <var id="x92"> 0 6 8 10 12 </var>
    <var id="x93"> 0 6 8 12 </var>
    <var id="x94"> 2 6 13 </var>
    <var as="x25" id="x95"/>
    <var id="x96"> 6 8 10 13 </var>
    <var id="x97"> 0 2 8 13 </var>
    <var id="x98"> 0 2 13 </var>
    <var id="x99"> 0 6..8 </var>
    <var id="x100"> 0 1 6..8 </var>
    <var id="x101"> 1 8 13 </var>
    <var id="x102"> 1 6 7 </var>
    <var id="x103"> 0 4 7 8 </var>
    <var id="x104"> 4 6 7 </var>
    <var id="x105"> 0 1 6 8 </var>
  </variables>
  <constraints>
    <group>
      <allDifferent> %... </allDifferent>
      <args> x0 x1 x2 x3 x4 x5 x6 </args>
      <args> x7 x8 x9 x10 x11 x12 x13 </args>
      <args> x14 x15 x16 x17 x18 x19 x20 </args>
      <args> x21 x22 x23 x24 x25 x26 x27 </args>
      <args> x28 x29 x30 x31 x32 x33 x34 </args>
      <args> x35 x36 x37 x38 x39 x40 x41 x42 </args>
      <args> x43 x44 x45 x46 x47 x48 x49 </args>
      <args> x50 x51 x52 x53 x54 x55 x56 </args>
      <args> x57 x58 x59 x60 x61 x62 x63 </args>
      <args> x64 x65 x66 x67 x68 x69 x70 </args>
      <args> x71 x72 x73 x74 x75 x76 x77 </args>
      <args> x78 x79 x80 x81 x82 x83 x84 </args>
      <args> x85 x86 x87 x88 x89 x90 x91 </args>
      <args> x92 x93 x94 x95 x96 x97 x98 </args>
      <args> x99 x100 x101 x102 x103 x104 x105 </args>
      <args> x7 x21 x28 x50 x71 x92 x99 </args>
      <args> x0 x22 x64 x72 x78 x93 x100 </args>
      <args> x14 x23 x35 x43 x57 x79 x85 </args>
      <args> x15 x29 x36 x65 x73 x86 x94 </args>
      <args> x8 x24 x51 x66 x74 x80 x87 </args>
      <args> x9 x25 x30 x44 x52 x58 x95 </args>
      <args> x1 x10 x16 x53 x67 x88 x96 </args>
      <args> x2 x11 x17 x31 x37 x75 x101 </args>
      <args> x26 x32 x38 x45 x54 x81 x102 </args>
      <args> x3 x39 x46 x55 x59 x82 x97 </args>
      <args> x4 x12 x18 x40 x47 x68 x103 </args>
      <args> x19 x56 x60 x69 x83 x89 x98 </args>
      <args> x27 x33 x48 x61 x76 x90 x104 </args>
      <args> x5 x34 x41 x49 x62 x70 x91 x105 </args>
      <args> x6 x13 x20 x42 x63 x77 x84 </args>
    </group>
  </constraints>
</instance>

